132
100000
1971
23953
1930
10020
8742
9888
14727
2512
3957
12954
17178
18457
14692
16738
22652
11199
8242
4175
17488
16978
10447
13692
12862
7916
567
8646
9953
14866
23505
23709
5850
13897
18685
1899
15946
9547
4332
1089
15974
7872
4731
22661
6726
3900
169
22743
4251
22956
22830
2672
430
9188
1003
17827
7523
2748
11287
19665
4632
13661
179
10065
1379
8008
20462
26
6688
142
18080
2409
6785
3413
8820
17028
23943
2320
24690
6499
18082
11547
13255
19203
22328
10360
23431
12411
7716
15057
14244
24078
2610
11939
3558
126
16
9480
1
22115
22740
14352
2432
6770
4561
14114
5943
18101
9149
5670
12439
10318
9911
22037
16738
884
17416
14554
14455
24628
19463
13531
6945
14098
15012
19368
18982
6577
18811
6439
11784
17322
5343
15310
